proyfinal/src/viki/013/experimentInOfficeAgust.take6.output/533e2a25-7835-41dc-b120-67edbef2710e.als.out
Reading from standard input... Use '--help' for help.
============================[ Problem Statistics ]=============================
|                                                                             |
|  Number of variables:         87638                                         |
|  Number of clauses:          161767                                         |
|  Parse time:                   0.03 s                                       |
|                                                                             |
============================[ Search Statistics ]==============================
| Conflicts |          ORIGINAL         |          LEARNT          | Progress |
|           |    Vars  Clauses Literals |    Limit  Clauses Lit/Cl |          |
===============================================================================
|       100 |   62555   105839   264568 |    38807      100     50 | 28.621 % |
|       250 |   44292   105823   264524 |    42688      233     60 | 49.460 % |
|       475 |   44292   105823   264524 |    46957      458     46 | 49.460 % |
|       812 |   44270    51666   131748 |    51652      781     35 | 49.485 % |
|      1318 |   44270    51594   131543 |    56818     1259     37 | 49.485 % |
|      2077 |   44240    51478   131269 |    62500     1921     35 | 49.520 % |
|      3216 |   44240    51434   131179 |    68750     3058     30 | 49.520 % |
===============================================================================
restarts              : 22
conflicts             : 4106           (11679 /sec)
decisions             : 13165          (0.00 % random) (37447 /sec)
propagations          : 4693510        (13350296 /sec)
conflict literals     : 113567         (32.15 % deleted)
Memory used           : 22.66 MB
CPU time              : 0.351566 s

UNSATISFIABLE
